presolving:
(round 1, fast)       30488 del vars, 65964 del conss, 0 add conss, 0 chg bounds, 0 chg sides, 0 chg coeffs, 0 upgd conss, 0 impls, 3750 clqs
(round 2, fast)       30493 del vars, 65964 del conss, 0 add conss, 0 chg bounds, 0 chg sides, 0 chg coeffs, 0 upgd conss, 0 impls, 3750 clqs
   (0.9s) running MILP presolver
   (0.9s) MILP presolver found nothing
(round 3, exhaustive) 30493 del vars, 65964 del conss, 0 add conss, 0 chg bounds, 0 chg sides, 0 chg coeffs, 5816 upgd conss, 0 impls, 3750 clqs
(round 4, exhaustive) 30493 del vars, 65964 del conss, 0 add conss, 0 chg bounds, 0 chg sides, 4 chg coeffs, 8066 upgd conss, 0 impls, 3750 clqs
   (1.5s) probing: 51/4135 (1.2%) - 0 fixings, 0 aggregations, 0 implications, 0 bound changes
   (1.5s) probing aborted: 50/50 successive totally useless probings
   (1.8s) symmetry computation started: requiring (bin +, int -, cont +), (fixed: bin -, int +, cont -)
   (1.9s) no symmetry present
presolving (5 rounds: 5 fast, 3 medium, 3 exhaustive):
 30493 deleted vars, 65964 deleted constraints, 0 added constraints, 0 tightened bounds, 0 added holes, 0 changed sides, 4 changed coefficients
 0 implications, 3750 cliques
presolved problem has 4135 variables (4135 bin, 0 int, 0 impl, 0 cont) and 8066 constraints
      4 constraints of type <knapsack>
   3750 constraints of type <setppc>
   4312 constraints of type <logicor>
Presolving Time: 1.66

 time | node  | left  |LP iter|LP it/n|mem/heur|mdpt |vars |cons |rows |cuts |sepa|confs|strbr|  dualbound   | primalbound  |  gap   | compl. 
p53.2s|     1 |     0 |  2050 |     - |  clique|   0 |4135 |8066 |8066 |   0 |  0 |   0 |   0 | 0.000000e+00 | 4.000000e+00 |    Inf | unknown
 54.6s|     1 |     0 |  4100 |     - |   256M |   0 |4135 |1305 |8066 |   0 |  0 |3760 |   0 | 3.310248e+00 | 4.000000e+00 |  20.84%| unknown
 54.9s|     1 |     0 |  4172 |     - |   259M |   0 |4135 |1305 |8067 |   1 |  1 |3760 |   0 | 3.311159e+00 | 4.000000e+00 |  20.80%| unknown
 55.3s|     1 |     0 |  4281 |     - |   262M |   0 |4135 |1304 |8068 |   2 |  2 |3760 |   0 | 3.311900e+00 | 4.000000e+00 |  20.78%| unknown
 55.7s|     1 |     0 |  4359 |     - |   264M |   0 |4135 |1304 |8069 |   3 |  3 |3760 |   0 | 3.312546e+00 | 4.000000e+00 |  20.75%| unknown
 56.1s|     1 |     0 |  4461 |     - |   266M |   0 |4135 |1304 |8070 |   4 |  4 |3760 |   0 | 3.313458e+00 | 4.000000e+00 |  20.72%| unknown
 56.5s|     1 |     0 |  4533 |     - |   268M |   0 |4135 |1304 |8071 |   5 |  5 |3760 |   0 | 3.314276e+00 | 4.000000e+00 |  20.69%| unknown
 56.9s|     1 |     0 |  4606 |     - |   271M |   0 |4135 |1304 |8072 |   6 |  6 |3760 |   0 | 3.314745e+00 | 4.000000e+00 |  20.67%| unknown
 57.3s|     1 |     0 |  4726 |     - |   275M |   0 |4135 |1304 |8073 |   7 |  7 |3760 |   0 | 3.315927e+00 | 4.000000e+00 |  20.63%| unknown
 57.9s|     1 |     0 |  4812 |     - |   278M |   0 |4135 |1304 |8074 |   8 |  8 |3760 |   0 | 3.316482e+00 | 4.000000e+00 |  20.61%| unknown
 58.4s|     1 |     0 |  5067 |     - |   281M |   0 |4135 |1304 |8075 |   9 |  9 |3760 |   0 | 3.319303e+00 | 4.000000e+00 |  20.51%| unknown
 59.4s|     1 |     0 |  6234 |     - |   283M |   0 |4135 |1304 |8076 |  10 | 10 |3760 |   0 | 3.395772e+00 | 4.000000e+00 |  17.79%| unknown
 59.5s|     1 |     0 |  6329 |     - |   284M |   0 |4135 |1304 |8077 |  11 | 12 |3760 |   0 | 3.396464e+00 | 4.000000e+00 |  17.77%| unknown
 59.7s|     1 |     0 |  6423 |     - |   285M |   0 |4135 |1304 |8078 |  12 | 13 |3760 |   0 | 3.397265e+00 | 4.000000e+00 |  17.74%| unknown
 59.9s|     1 |     0 |  6480 |     - |   286M |   0 |4135 |1304 |8079 |  13 | 14 |3760 |   0 | 3.397799e+00 | 4.000000e+00 |  17.72%| unknown
 time | node  | left  |LP iter|LP it/n|mem/heur|mdpt |vars |cons |rows |cuts |sepa|confs|strbr|  dualbound   | primalbound  |  gap   | compl. 
 60.0s|     1 |     0 |  6566 |     - |   287M |   0 |4135 |1304 |8080 |  14 | 15 |3760 |   0 | 3.398831e+00 | 4.000000e+00 |  17.69%| unknown
 60.3s|     1 |     0 |  6681 |     - |   287M |   0 |4135 |1304 |8081 |  15 | 16 |3760 |   0 | 3.399790e+00 | 4.000000e+00 |  17.65%| unknown
 60.5s|     1 |     0 |  6786 |     - |   288M |   0 |4135 |1304 |8081 |  16 | 18 |3760 |   0 | 3.400364e+00 | 4.000000e+00 |  17.63%| unknown
 60.7s|     1 |     0 |  6871 |     - |   288M |   0 |4135 |1304 |8082 |  17 | 19 |3760 |   0 | 3.400753e+00 | 4.000000e+00 |  17.62%| unknown
 60.9s|     1 |     0 |  6962 |     - |   289M |   0 |4135 |1304 |8083 |  18 | 20 |3760 |   0 | 3.401008e+00 | 4.000000e+00 |  17.61%| unknown
 61.0s|     1 |     0 |  7021 |     - |   290M |   0 |4135 |1304 |8084 |  19 | 21 |3760 |   0 | 3.401502e+00 | 4.000000e+00 |  17.60%| unknown
 61.1s|     1 |     0 |  7118 |     - |   291M |   0 |4135 |1304 |8085 |  20 | 22 |3760 |   0 | 3.401815e+00 | 4.000000e+00 |  17.58%| unknown
(run 1, node 1) restarting after 3760 global fixings of integer variables

(restart) converted 19 cuts from the global cut pool into linear constraints

presolving:
(round 1, fast)       3760 del vars, 742 del conss, 0 add conss, 0 chg bounds, 0 chg sides, 367 chg coeffs, 0 upgd conss, 0 impls, 0 clqs
   (70.2s) running MILP presolver
   (70.2s) MILP presolver found nothing
(round 2, exhaustive) 3760 del vars, 742 del conss, 0 add conss, 0 chg bounds, 0 chg sides, 367 chg coeffs, 19 upgd conss, 0 impls, 0 clqs
(round 3, fast)       3760 del vars, 742 del conss, 0 add conss, 0 chg bounds, 1 chg sides, 368 chg coeffs, 19 upgd conss, 0 impls, 0 clqs
presolving (4 rounds: 4 fast, 2 medium, 2 exhaustive):
 3760 deleted vars, 742 deleted constraints, 0 added constraints, 0 tightened bounds, 0 added holes, 1 changed sides, 368 changed coefficients
 0 implications, 0 cliques
presolved problem has 375 variables (375 bin, 0 int, 0 impl, 0 cont) and 583 constraints
     19 constraints of type <knapsack>
      1 constraints of type <linear>
    563 constraints of type <logicor>
transformed objective value is always integral (scale: 1)
Presolving Time: 1.81
transformed 4/4 original solutions to the transformed problem space

 time | node  | left  |LP iter|LP it/n|mem/heur|mdpt |vars |cons |rows |cuts |sepa|confs|strbr|  dualbound   | primalbound  |  gap   | compl. 
 70.3s|     1 |     0 | 23170 |     - |   282M |   0 | 375 | 583 |   0 |   0 |  0 |3762 |   0 | 4.000000e+00 | 4.000000e+00 |   0.00%| unknown

SCIP Status        : problem is solved [optimal solution found]
Solving Time (sec) : 70.31
Solving Nodes      : 1 (total of 2 nodes in 2 runs)
Primal Bound       : +4.00000000000000e+00 (4 solutions)
Dual Bound         : +4.00000000000000e+00
Gap                : 0.00 %
Solve Status: optimal
Solve Time: 70.36 seconds
